CMD:
./solvers/bin/cadical --plain --no-reduce -t 1600 ./data/cnfs//vgasim_imgfifo-p089/vgasim_imgfifo-p089.82.cnf

c --- [ banner ] -------------------------------------------------------------
c 
c CaDiCaL SAT Solver
c Copyright (c) 2016-2024
c A. Biere, M. Fleury, N. Froleyks, K. Fazekas, F. Pollitt, T. Faller
c JKU Linz, University of Freiburg, TU Wien
c 
c Version 2.1.3 5296d3d2a9bf48c154ab2acb5e44625776d821bf
c g++ (Gentoo 12.3.1_p20230526 p2) 12.3.1 20230526 -Wall -Wextra -O3 -DNDEBUG
c Sat Aug 9 07:26:21 PDT 2025 Linux cedar2.int.cedar.computecanada.ca 5.14.0-362.24.2.el9_3.x86_64 x86_64
c 
c --- [ limit ] --------------------------------------------------------------
c 
c setting time limit to 1600 seconds real time (due to '-t 1600')
c 
c --- [ parsing input ] ------------------------------------------------------
c 
c reading DIMACS file from './data/cnfs//vgasim_imgfifo-p089/vgasim_imgfifo-p089.82.cnf'
c opening file to read './data/cnfs//vgasim_imgfifo-p089/vgasim_imgfifo-p089.82.cnf'
c found 'p cnf 393590 1136927' header
c parsed 1136927 clauses in 0.19 seconds process time
c 
c --- [ options ] ------------------------------------------------------------
c 
c   --compact=false                (different from default 'true')
c   --decompose=false              (different from default 'true')
c   --deduplicate=false            (different from default 'true')
c   --elim=false                   (different from default 'true')
c   --probe=false                  (different from default 'true')
c   --reduce=false                 (different from default 'true')
c   --subsume=false                (different from default 'true')
c   --ternary=false                (different from default 'true')
c   --transred=false               (different from default 'true')
c   --vivify=false                 (different from default 'true')
c 
c --- [ solving ] ------------------------------------------------------------
c 
c time measured in process time since initialization
c 
c  seconds   reductions  redundant   irredundant
c          MB    restarts       trail        variables
c           level   conflicts       glue           remaining
c 
c *  0.19 178  0 0   0    0    0  0% 0 1088345 333191 85%
c {  0.21 180  0 0   0    0    0  0% 0 1088345 333191 85%
c i  0.21 180  1 0   0    1    0 16% 0 1088345 333190 85%
c i  0.32 183 85 0   7  488  465 26% 1 1088345 333189 85%
c i  0.33 183 84 0   7  489  465 26% 1 1088345 333188 85%
c i  0.33 183 84 0   7  490  465 26% 1 1088345 333187 85%
c i  0.34 183 84 0   7  495  468 26% 1 1088345 333147 85%
c i  0.34 183 84 0   7  496  468 26% 1 1088345 332981 85%
c i  0.42 184 81 0  14  530  501 27% 2 1088345 331516 84%
c i  0.59 184 75 0  47  677  622 28% 2 1088345 331513 84%
c i  0.67 184 75 0  60  739  663 28% 3 1088345 331496 84%
c i  0.67 184 75 0  60  740  663 28% 3 1088345 331482 84%
c i  0.67 184 75 0  61  741  663 28% 3 1088345 331468 84%
c i  0.67 184 75 0  61  742  663 28% 3 1088345 331454 84%
c i  0.68 184 75 0  61  743  663 28% 3 1088345 331451 84%
c i  0.68 184 75 0  62  748  666 28% 3 1088345 331438 84%
c i  0.77 184 76 0  71  783  700 28% 3 1088345 331395 84%
c i  0.78 184 74 0  79  822  732 28% 3 1088345 330861 84%
c i  0.79 184 71 0  80  885  790 28% 3 1088345 330857 84%
c i  0.80 184 71 0  80  920  822 28% 3 1088345 330856 84%
c 
c  seconds   reductions  redundant   irredundant
c          MB    restarts       trail        variables
c           level   conflicts       glue           remaining
c 
c i  0.80 184 71 0  80  921  822 28% 3 1088345 330843 84%
c i  0.80 184 71 0  80  922  822 28% 3 1088345 330840 84%
c i  0.81 184 71 0  80  930  827 28% 3 1088345 330839 84%
c i  0.81 184 71 0  80  931  827 28% 3 1088345 330838 84%
c i  0.81 184 71 0  80  933  827 28% 3 1088345 330814 84%
c i  0.81 184 71 0  80  934  827 28% 3 1088345 330812 84%
c i  0.81 184 70 0  80  938  830 28% 3 1088345 330805 84%
c i  0.81 184 70 0  80  939  830 28% 3 1088345 330801 84%
c i  0.81 184 70 0  80  940  830 28% 3 1088345 330799 84%
c }  0.83 184 73 0  80 1003  885 29% 3 1088345 330799 84%
c [  0.83 184  0 0  80 1003  885  0% 0 1088345 330799 84%
c O  0.83 184 484 0  80 1004  886 20% 3 1088345 330673 84%
c i  1.74 185 283 0  81 2767 2360 28% 9 1088345 330589 84%
c i  1.97 185 256 0  81 2964 2500 28% 9 1088345 330586 84%
c i  1.97 185 255 0  81 2970 2502 28% 9 1088345 330583 84%
c i  1.97 185 254 0  81 2976 2506 28% 9 1088345 330582 84%
c i  1.97 185 253 0  81 2983 2510 28% 9 1088345 330581 84%
c i  1.97 185 252 0  81 2989 2513 28% 9 1088345 330580 84%
c i  1.97 185 251 0  81 2996 2515 28% 9 1088345 330577 84%
c i  1.97 185 251 0  81 3002 2517 28% 9 1088345 330575 84%
c 
c  seconds    reductions  redundant   irredundant
c          MB     restarts       trail        variables
c            level   conflicts       glue           remaining
c 
c ]  1.97 185 251 0  81 3003 2518 28% 9 1088345 330575 84%
c {  1.97 185 73 0  81 3003 2518 29% 3 1088345 330575 84%
c i  1.98 185 73 0  81 3008 2519 29% 3 1088345 330572 84%
c F  1.99 185 73 0  81 3009 2519 29% 3 1088345 330572 84%
c i  1.99 185 73 0  81 3009 2519 29% 3 1088345 330546 84%
c i  2.00 185 72 0  81 3015 2522 29% 3 1088345 328604 83%
c }  2.00 185 72 0  81 3019 2523 29% 3 1088345 324199 82%
c 0  2.00 185 72 0  81 3019 2523 29% 3 1088345 324199 82%
c 
c --- [ result ] -------------------------------------------------------------
c 
s UNSATISFIABLE
c 
c --- [ run-time profiling ] -------------------------------------------------
c 
c process time taken by individual solving procedures
c (percentage relative to process time for solving)
c 
c         1.81   99.99% search
c         1.14   63.25% stable
c         0.64   35.53% unstable
c         0.19   10.36% parse
c         0.02    1.21% lucky
c         0.00    0.00% simplify
c   =================================
c         1.81   90.59% solve
c 
c last line shows process time for solving
c (percentage relative to total process time)
c 
c --- [ statistics ] ---------------------------------------------------------
c 
c chronological:              1188        39.35 %  of conflicts
c conflicts:                  3019      1668.45    per second
c decisions:                 10934      6042.66    per second
c fixed:                     69344        17.62 %  of all variables
c learned:                    2874        95.20 %  per conflict
c learned_lits:              70555       100.00 %  learned literals
c minimized:                     0         0.00 %  learned literals
c shrunken:                  14617        20.72 %  learned literals
c minishrunken:               9435        13.37 %  learned literals
c otfs:                         52         1.72 %  of conflict
c propagations:           22913498        12.66 M  per second
c rephased:                      2      1509.50    interval
c restarts:                     81        37.27    interval
c stabilizing:                   1        66.25 %  of conflicts
c subsumed:                    309         0.03 %  of all clauses
c strengthened:                 52         0.00 %  of all clauses
c 
c seconds are measured in process time for solving
c 
c --- [ resources ] ----------------------------------------------------------
c 
c total process time since initialization:         2.00    seconds
c total real time since initialization:            2.01    seconds
c maximum resident set size of process:          182.88    MB
c 
c --- [ shutting down ] ------------------------------------------------------
c 
c exit 20
